300
75 75
1 60 883
2 60 816
3 60 493
4 60 239
5 60 430
6 60 523
7 59 48
8 59 762
9 59 838
10 59 904
11 59 268
12 59 791
13 58 152
14 58 842
15 58 47
16 58 368
17 58 988
18 58 925
19 58 558
20 57 658
21 57 777
22 57 103
23 57 26
24 57 165
25 57 207
26 57 891
27 56 410
28 56 887
29 56 165
30 56 514
31 56 956
32 56 358
33 56 486
34 56 13
35 56 39
36 56 619
37 55 706
38 55 187
39 55 799
40 54 426
41 54 725
42 54 682
43 54 458
44 54 282
45 54 548
46 54 733
47 54 392
48 54 522
49 54 962
50 54 792
51 53 770
52 53 636
53 53 812
54 52 268
55 52 720
56 52 670
57 51 32
58 51 736
59 51 47
60 51 247
61 51 509
62 51 66
63 51 462
64 51 21
65 51 927
66 50 893
67 50 712
68 50 922
69 50 123
70 50 434
71 50 220
72 49 491
73 49 992
74 49 768
75 49 539
76 49 623
77 49 593
78 49 27
79 49 802
80 48 853
81 48 312
82 48 388
83 48 52
84 48 799
85 48 821
86 47 71
87 47 693
88 47 576
89 47 454
90 47 469
91 47 95
92 47 114
93 46 115
94 46 336
95 46 800
96 46 607
97 46 732
98 46 253
99 45 909
100 45 637
101 45 240
102 45 586
103 45 814
104 45 560
105 45 784
106 44 755
107 44 464
108 44 365
109 44 447
110 44 937
111 44 460
112 44 687
113 43 678
114 43 349
115 43 135
116 43 719
117 43 329
118 42 279
119 42 197
120 42 865
121 42 737
122 42 844
123 41 146
124 41 609
125 41 288
126 41 712
127 41 59
128 40 554
129 40 170
130 40 808
131 40 723
132 39 780
133 39 487
134 39 206
135 39 959
136 38 716
137 38 508
138 38 617
139 37 241
140 37 661
141 37 534
142 37 872
143 37 299
144 37 52
145 36 977
146 36 594
147 36 590
148 35 76
149 35 37
150 35 19
151 35 36
152 34 824
153 34 543
154 34 469
155 34 802
156 34 432
157 34 63
158 33 434
159 33 183
160 33 979
161 33 8
162 33 400
163 33 267
164 33 178
165 32 32
166 32 174
167 32 812
168 32 444
169 32 297
170 32 660
171 32 857
172 32 437
173 31 165
174 31 218
175 31 27
176 30 532
177 30 679
178 30 987
179 30 295
180 30 832
181 29 814
182 29 928
183 29 397
184 29 387
185 28 281
186 28 826
187 28 13
188 28 32
189 28 579
190 28 792
191 28 734
192 28 755
193 28 755
194 27 154
195 27 208
196 27 469
197 27 164
198 27 748
199 26 932
200 26 334
201 26 494
202 26 28
203 26 486
204 26 607
205 26 114
206 26 715
207 25 972
208 25 385
209 25 93
210 25 839
211 25 440
212 24 544
213 24 786
214 24 619
215 24 15
216 24 361
217 24 109
218 23 393
219 23 56
220 23 72
221 23 436
222 23 69
223 23 969
224 22 768
225 22 756
226 22 801
227 22 274
228 22 660
229 22 312
230 22 350
231 22 298
232 21 606
233 21 171
234 21 504
235 21 3
236 21 538
237 20 451
238 20 281
239 20 152
240 20 754
241 19 474
242 19 387
243 19 233
244 19 157
245 19 233
246 18 54
247 18 659
248 18 603
249 17 981
250 17 726
251 16 184
252 16 422
253 15 638
254 15 979
255 15 910
256 15 397
257 15 387
258 14 499
259 14 599
260 14 797
261 14 253
262 14 458
263 14 488
264 14 454
265 13 403
266 13 538
267 12 182
268 12 374
269 12 847
270 12 201
271 12 368
272 12 520
273 12 287
274 12 690
275 11 699
276 11 499
277 11 461
278 11 656
279 11 867
280 11 605
281 11 949
282 10 166
283 10 784
284 10 399
285 10 798
286 10 305
287 10 267
288 10 438
289 9 176
290 9 744
291 9 734
292 9 6
293 9 804
294 9 465
295 8 645
296 8 760
297 8 19
298 7 356
299 7 380
300 7 261
